Set parameter Username
Set parameter LicenseID to value 2716274
Academic license - for non-commercial use only - expires 2026-09-30
Gurobi Optimizer version 12.0.3 build v12.0.3rc0 (linux64 - "Ubuntu 22.04.5 LTS")

CPU model: AMD EPYC 7742 64-Core Processor, instruction set [SSE2|AVX|AVX2]
Thread count: 128 physical cores, 256 logical processors, using up to 32 threads

Optimize a model with 2615 rows, 744 columns and 8212 nonzeros
Model fingerprint: 0x9862e56a
Variable types: 627 continuous, 117 integer (0 binary)
Coefficient statistics:
  Matrix range     [1e+00, 3e+00]
  Objective range  [1e+00, 3e+00]
  Bounds range     [1e+00, 1e+00]
  RHS range        [1e+00, 1e+03]
Found heuristic solution: objective 6.0000000
Presolve removed 1727 rows and 443 columns
Presolve time: 0.03s
Presolved: 888 rows, 301 columns, 2998 nonzeros
Variable types: 182 continuous, 119 integer (119 binary)

Root relaxation: objective 2.000000e+01, 146 iterations, 0.00 seconds (0.00 work units)

    Nodes    |    Current Node    |     Objective Bounds      |     Work
 Expl Unexpl |  Obj  Depth IntInf | Incumbent    BestBd   Gap | It/Node Time

     0     0   20.00000    0   13    6.00000   20.00000   233%     -    0s
H    0     0                      10.0000000   20.00000   100%     -    0s
H    0     0                      12.0000000   20.00000  66.7%     -    0s
H    0     0                      13.0000000   20.00000  53.8%     -    0s
H    0     0                      14.0000000   20.00000  42.9%     -    0s
H    0     0                      16.0000000   20.00000  25.0%     -    0s
     0     0   19.66667    0   28   16.00000   19.66667  22.9%     -    0s
H    0     0                      18.0000000   19.50000  8.33%     -    0s
H    0     0                      19.0000000   19.50000  2.63%     -    0s

Cutting planes:
  Gomory: 21
  Implied bound: 1
  MIR: 6
  Flow cover: 3
  Zero half: 6
  RLT: 11

Explored 1 nodes (682 simplex iterations) in 0.11 seconds (0.04 work units)
Thread count was 32 (of 256 available processors)

Solution count 8: 19 18 16 ... 6

Optimal solution found (tolerance 1.00e-04)
Best objective 1.900000000000e+01, best bound 1.900000000000e+01, gap 0.0000%
lam[0,0] = -0.0
lam[0,1] = 1.0
lam[0,2] = -0.0
lam[1,0] = 1.0
lam[1,1] = 0.0
lam[1,2] = -0.0
lam[2,0] = -0.0
lam[2,1] = 1.0
lam[2,2] = -0.0
lam[3,0] = 1.0
lam[3,1] = 0.0
lam[3,2] = -0.0
lam[4,0] = 1.0
lam[4,1] = -0.0
lam[4,2] = 0.0
lam[5,0] = 1.0
lam[5,1] = 0.0
lam[5,2] = -0.0
tau[0,0,1] = -0.0
tau[0,0,2] = -0.0
tau[0,0,3] = -0.0
tau[0,0,4] = -0.0
tau[0,0,5] = -0.0
tau[0,0,L0] = -0.0
tau[0,0,L1] = 1.0
tau[0,0,L2] = -0.0
tau[0,1,1] = -0.0
tau[0,1,2] = -0.0
tau[0,1,3] = -0.0
tau[0,1,4] = -0.0
tau[0,1,5] = -0.0
tau[0,1,L0] = -0.0
tau[0,1,L1] = 1.0
tau[0,1,L2] = -0.0
tau[0,2,1] = -0.0
tau[0,2,2] = -0.0
tau[0,2,3] = -0.0
tau[0,2,4] = -0.0
tau[0,2,5] = -0.0
tau[0,2,L0] = 1.0
tau[0,2,L1] = -0.0
tau[0,2,L2] = -0.0
tau[1,0,2] = 0.0
tau[1,0,3] = -0.0
tau[1,0,4] = -0.0
tau[1,0,5] = -0.0
tau[1,0,L0] = 1.0
tau[1,0,L1] = -0.0
tau[1,0,L2] = -0.0
tau[1,1,2] = 1.0
tau[1,1,3] = 0.0
tau[1,1,4] = -0.0
tau[1,1,5] = -0.0
tau[1,1,L0] = -0.0
tau[1,1,L1] = -0.0
tau[1,1,L2] = 0.0
tau[1,2,2] = -0.0
tau[1,2,3] = 0.0
tau[1,2,4] = -0.0
tau[1,2,5] = -0.0
tau[1,2,L0] = -0.0
tau[1,2,L1] = -0.0
tau[1,2,L2] = -0.0
tau[2,0,3] = -0.0
tau[2,0,4] = 1.0
tau[2,0,5] = 0.0
tau[2,0,L0] = -0.0
tau[2,0,L1] = -0.0
tau[2,0,L2] = -0.0
tau[2,1,3] = 1.0
tau[2,1,4] = -0.0
tau[2,1,5] = -0.0
tau[2,1,L0] = -0.0
tau[2,1,L1] = -0.0
tau[2,1,L2] = 0.0
tau[2,2,3] = 0.0
tau[2,2,4] = 0.0
tau[2,2,5] = 1.0
tau[2,2,L0] = -0.0
tau[2,2,L1] = -0.0
tau[2,2,L2] = -0.0
tau[3,0,4] = -0.0
tau[3,0,5] = -0.0
tau[3,0,L0] = -0.0
tau[3,0,L1] = -0.0
tau[3,0,L2] = 1.0
tau[3,1,4] = -0.0
tau[3,1,5] = -0.0
tau[3,1,L0] = -0.0
tau[3,1,L1] = 0.0
tau[3,1,L2] = 1.0
tau[3,2,4] = -0.0
tau[3,2,5] = 0.0
tau[3,2,L0] = -0.0
tau[3,2,L1] = -0.0
tau[3,2,L2] = -0.0
tau[4,0,5] = -0.0
tau[4,0,L0] = 1.0
tau[4,0,L1] = -0.0
tau[4,0,L2] = -0.0
tau[4,1,5] = -0.0
tau[4,1,L0] = -0.0
tau[4,1,L1] = 0.0
tau[4,1,L2] = 1.0
tau[4,2,5] = 0.0
tau[4,2,L0] = -0.0
tau[4,2,L1] = -0.0
tau[4,2,L2] = -0.0
tau[5,0,L0] = -0.0
tau[5,0,L1] = 1.0
tau[5,0,L2] = -0.0
tau[5,1,L0] = 0.0
tau[5,1,L1] = 1.0
tau[5,1,L2] = 0.0
tau[5,2,L0] = -0.0
tau[5,2,L1] = -0.0
tau[5,2,L2] = 0.0
m[0,0] = 0.0
m[0,1] = 0.0
m[0,2] = 0.0
m[0,3] = 0.0
u[0] = 0.0
u[1] = 1.0
u[2] = 1.0
u[3] = 1.0
u[4] = 1.0
u[5] = 1.0
o_u[0,0] = 0.0
o_u[0,1] = 0.0
o_u[0,2] = 0.0
o_u[1,0] = 1.0
o_u[1,1] = 0.0
o_u[1,2] = 0.0
o_u[2,0] = 0.0
o_u[2,1] = 1.0
o_u[2,2] = 0.0
o_u[3,0] = 1.0
o_u[3,1] = 0.0
o_u[3,2] = 0.0
o_u[4,0] = 1.0
o_u[4,1] = 0.0
o_u[4,2] = 0.0
o_u[5,0] = 1.0
o_u[5,1] = 0.0
o_u[5,2] = 0.0
Status: 2
Obj: 19.0
